c t pmc
c file mc2023_track3_031.cnf
p cnf 168 623
c p show 2 3 8 10 11 12 14 15 16 17 18 20 21 23 25 26 28 29 30 32 34 35 36 39 42 43 45 47 49 50 51 52 53 55 57 58 59 60 63 66 69 70 73 75 77 79 80 81 83 86 90 91 93 94 95 97 100 101 102 103 105 107 109 111 114 115 116 117 118 120 121 123 124 125 128 130 136 137 138 139 141 143 145 151 154 155 158 162 163 164 165 167 168 0
26 27 0
39 40 0
49 50 53 52 51 0
61 64 65 63 66 0
73 77 79 78 76 75 0
89 90 91 92 88 87 0
100 101 103 99 102 105 104 0
117 118 112 113 116 111 115 114 0
121 127 129 123 125 128 131 130 124 126 0
133 140 144 135 136 142 143 141 137 139 138 0
153 156 148 150 155 154 151 149 147 152 0
157 162 167 161 166 159 160 164 165 163 168 0
-63 -111 0
-64 -112 0
-65 -113 0
-66 -114 0
-67 -115 0
-68 -116 0
-69 -117 0
-70 -118 0
-71 -119 0
-72 -120 0
-75 -111 0
-76 -112 0
-77 -113 0
-78 -114 0
-79 -115 0
-80 -116 0
-81 -117 0
-82 -118 0
-83 -119 0
-84 -120 0
-15 -39 0
-16 -40 0
-41 -17 0
-42 -18 0
-43 -19 0
-44 -20 0
-45 -21 0
-46 -22 0
-47 -23 0
-48 -24 0
-159 -99 0
-160 -100 0
-161 -101 0
-162 -102 0
-163 -103 0
-164 -104 0
-165 -105 0
-166 -106 0
-167 -107 0
-168 -108 0
-99 -51 0
-100 -52 0
-101 -53 0
-102 -54 0
-103 -55 0
-104 -56 0
-105 -57 0
-106 -58 0
-107 -59 0
-108 -60 0
-147 -87 0
-148 -88 0
-149 -89 0
-150 -90 0
-151 -91 0
-152 -92 0
-153 -93 0
-154 -94 0
-155 -95 0
-156 -96 0
-27 -99 0
-28 -100 0
-29 -101 0
-30 -102 0
-31 -103 0
-32 -104 0
-33 -105 0
-34 -106 0
-35 -107 0
-36 -108 0
-3 -27 0
-4 -28 0
-5 -29 0
-6 -30 0
-7 -31 0
-8 -32 0
-9 -33 0
-10 -34 0
-11 -35 0
-12 -36 0
-135 -39 0
-136 -40 0
-137 -41 0
-138 -42 0
-139 -43 0
-140 -44 0
-141 -45 0
-142 -46 0
-143 -47 0
-144 -48 0
-87 -3 0
-88 -4 0
-89 -5 0
-90 -6 0
-91 -7 0
-92 -8 0
-93 -9 0
-94 -10 0
-95 -11 0
-96 -12 0
-99 -111 0
-100 -112 0
-101 -113 0
-102 -114 0
-103 -115 0
-104 -116 0
-105 -117 0
-106 -118 0
-107 -119 0
-108 -120 0
-147 -51 0
-148 -52 0
-149 -53 0
-150 -54 0
-151 -55 0
-152 -56 0
-153 -57 0
-154 -58 0
-155 -59 0
-156 -60 0
-75 -15 0
-76 -16 0
-77 -17 0
-78 -18 0
-79 -19 0
-80 -20 0
-81 -21 0
-82 -22 0
-83 -23 0
-84 -24 0
-147 -27 0
-148 -28 0
-149 -29 0
-150 -30 0
-151 -31 0
-152 -32 0
-153 -33 0
-154 -34 0
-155 -35 0
-156 -36 0
-87 -39 0
-88 -40 0
-41 -89 0
-42 -90 0
-43 -91 0
-44 -92 0
-45 -93 0
-46 -94 0
-47 -95 0
-48 -96 0
-3 -39 0
-4 -40 0
-41 -5 0
-42 -6 0
-43 -7 0
-44 -8 0
-45 -9 0
-46 -10 0
-47 -11 0
-48 -12 0
-135 -15 0
-136 -16 0
-137 -17 0
-138 -18 0
-139 -19 0
-140 -20 0
-141 -21 0
-142 -22 0
-143 -23 0
-144 -24 0
-135 -87 0
-136 -88 0
-137 -89 0
-138 -90 0
-139 -91 0
-140 -92 0
-141 -93 0
-142 -94 0
-143 -95 0
-144 -96 0
-75 -87 0
-76 -88 0
-77 -89 0
-78 -90 0
-79 -91 0
-80 -92 0
-81 -93 0
-82 -94 0
-83 -95 0
-84 -96 0
-51 -111 0
-52 -112 0
-53 -113 0
-54 -114 0
-55 -115 0
-56 -116 0
-57 -117 0
-58 -118 0
-59 -119 0
-60 -120 0
-27 -111 0
-28 -112 0
-29 -113 0
-30 -114 0
-31 -115 0
-32 -116 0
-33 -117 0
-34 -118 0
-35 -119 0
-36 -120 0
-147 -159 0
-148 -160 0
-149 -161 0
-150 -162 0
-151 -163 0
-152 -164 0
-153 -165 0
-154 -166 0
-155 -167 0
-156 -168 0
-123 -39 0
-124 -40 0
-125 -41 0
-126 -42 0
-127 -43 0
-128 -44 0
-129 -45 0
-130 -46 0
-131 -47 0
-132 -48 0
-147 -63 0
-148 -64 0
-149 -65 0
-150 -66 0
-151 -67 0
-152 -68 0
-153 -69 0
-154 -70 0
-155 -71 0
-156 -72 0
-123 -99 0
-124 -100 0
-125 -101 0
-126 -102 0
-127 -103 0
-128 -104 0
-129 -105 0
-130 -106 0
-131 -107 0
-132 -108 0
-123 -147 0
-124 -148 0
-125 -149 0
-126 -150 0
-127 -151 0
-128 -152 0
-129 -153 0
-130 -154 0
-131 -155 0
-132 -156 0
-63 -15 0
-64 -16 0
-65 -17 0
-66 -18 0
-67 -19 0
-68 -20 0
-69 -21 0
-70 -22 0
-71 -23 0
-72 -24 0
-159 -27 0
-160 -28 0
-161 -29 0
-162 -30 0
-163 -31 0
-164 -32 0
-165 -33 0
-166 -34 0
-167 -35 0
-168 -36 0
-135 -111 0
-136 -112 0
-137 -113 0
-138 -114 0
-139 -115 0
-140 -116 0
-141 -117 0
-142 -118 0
-143 -119 0
-144 -120 0
-75 -39 0
-76 -40 0
-77 -41 0
-78 -42 0
-79 -43 0
-80 -44 0
-81 -45 0
-82 -46 0
-83 -47 0
-84 -48 0
-123 -15 0
-124 -16 0
-125 -17 0
-126 -18 0
-127 -19 0
-128 -20 0
-129 -21 0
-130 -22 0
-131 -23 0
-132 -24 0
-75 -27 0
-76 -28 0
-77 -29 0
-78 -30 0
-79 -31 0
-80 -32 0
-81 -33 0
-82 -34 0
-83 -35 0
-84 -36 0
-159 -39 0
-160 -40 0
-161 -41 0
-162 -42 0
-163 -43 0
-164 -44 0
-165 -45 0
-166 -46 0
-167 -47 0
-168 -48 0
-159 -15 0
-160 -16 0
-161 -17 0
-162 -18 0
-163 -19 0
-164 -20 0
-165 -21 0
-166 -22 0
-167 -23 0
-168 -24 0
-123 -27 0
-124 -28 0
-125 -29 0
-126 -30 0
-127 -31 0
-128 -32 0
-129 -33 0
-130 -34 0
-131 -35 0
-132 -36 0
-147 -3 0
-148 -4 0
-149 -5 0
-150 -6 0
-151 -7 0
-152 -8 0
-153 -9 0
-154 -10 0
-155 -11 0
-156 -12 0
-111 -39 0
-40 -112 0
-41 -113 0
-42 -114 0
-43 -115 0
-44 -116 0
-45 -117 0
-46 -118 0
-47 -119 0
-48 -120 0
-27 -39 0
-28 -40 0
-41 -29 0
-42 -30 0
-43 -31 0
-44 -32 0
-45 -33 0
-46 -34 0
-47 -35 0
-48 -36 0
-15 -111 0
-16 -112 0
-17 -113 0
-18 -114 0
-19 -115 0
-20 -116 0
-21 -117 0
-22 -118 0
-23 -119 0
-24 -120 0
-147 -75 0
-148 -76 0
-149 -77 0
-150 -78 0
-151 -79 0
-152 -80 0
-153 -81 0
-154 -82 0
-155 -83 0
-156 -84 0
-3 -99 0
-4 -100 0
-5 -101 0
-6 -102 0
-7 -103 0
-8 -104 0
-9 -105 0
-10 -106 0
-11 -107 0
-12 -108 0
-87 -111 0
-88 -112 0
-89 -113 0
-90 -114 0
-91 -115 0
-92 -116 0
-93 -117 0
-94 -118 0
-95 -119 0
-96 -120 0
-15 -3 0
-16 -4 0
-17 -5 0
-18 -6 0
-19 -7 0
-20 -8 0
-21 -9 0
-22 -10 0
-23 -11 0
-24 -12 0
-87 -27 0
-88 -28 0
-89 -29 0
-90 -30 0
-91 -31 0
-92 -32 0
-93 -33 0
-94 -34 0
-95 -35 0
-96 -36 0
-159 -111 0
-160 -112 0
-161 -113 0
-162 -114 0
-163 -115 0
-164 -116 0
-165 -117 0
-166 -118 0
-167 -119 0
-168 -120 0
-147 -39 0
-148 -40 0
-149 -41 0
-150 -42 0
-151 -43 0
-152 -44 0
-153 -45 0
-154 -46 0
-155 -47 0
-156 -48 0
-75 -99 0
-76 -100 0
-77 -101 0
-78 -102 0
-79 -103 0
-80 -104 0
-81 -105 0
-82 -106 0
-83 -107 0
-84 -108 0
-147 -15 0
-148 -16 0
-149 -17 0
-150 -18 0
-151 -19 0
-152 -20 0
-153 -21 0
-154 -22 0
-155 -23 0
-156 -24 0
-147 -99 0
-148 -100 0
-149 -101 0
-150 -102 0
-151 -103 0
-152 -104 0
-153 -105 0
-154 -106 0
-155 -107 0
-156 -108 0
-63 -87 0
-64 -88 0
-65 -89 0
-66 -90 0
-67 -91 0
-68 -92 0
-69 -93 0
-70 -94 0
-71 -95 0
-72 -96 0
-135 -27 0
-136 -28 0
-137 -29 0
-138 -30 0
-139 -31 0
-140 -32 0
-141 -33 0
-142 -34 0
-143 -35 0
-144 -36 0
-159 -87 0
-160 -88 0
-161 -89 0
-162 -90 0
-163 -91 0
-164 -92 0
-165 -93 0
-166 -94 0
-167 -95 0
-168 -96 0
-99 -39 0
-100 -40 0
-41 -101 0
-42 -102 0
-43 -103 0
-44 -104 0
-45 -105 0
-46 -106 0
-47 -107 0
-48 -108 0
-15 -99 0
-16 -100 0
-17 -101 0
-18 -102 0
-19 -103 0
-20 -104 0
-21 -105 0
-22 -106 0
-23 -107 0
-24 -108 0
-87 -15 0
-88 -16 0
-89 -17 0
-90 -18 0
-91 -19 0
-92 -20 0
-93 -21 0
-94 -22 0
-95 -23 0
-96 -24 0
-3 -111 0
-4 -112 0
-5 -113 0
-6 -114 0
-7 -115 0
-8 -116 0
-9 -117 0
-10 -118 0
-11 -119 0
-12 -120 0
-99 -87 0
-100 -88 0
-101 -89 0
-102 -90 0
-103 -91 0
-104 -92 0
-105 -93 0
-106 -94 0
-107 -95 0
-108 -96 0
-50 -26 0
-51 -27 0
-52 -28 0
-53 -29 0
-54 -30 0
-55 -31 0
-56 -32 0
-57 -33 0
-58 -34 0
-59 -35 0
-60 -36 0
-111 -147 0
-112 -148 0
-113 -149 0
-114 -150 0
-115 -151 0
-116 -152 0
-117 -153 0
-118 -154 0
-119 -155 0
-120 -156 0
1 0
-25 0
-85 0
-37 0
-145 0
-97 0
-13 0
14 0
-38 0
-74 0
-134 0
-62 0
-122 0
-158 0
-110 0
-2 0
-146 0
-98 0
-86 0
-109 0
